Minimize
	value: tt

Subject to
tt + 2000 s_1_1 > 0
tt - t_1_1 - 2002.500000 s_1_1 + 2.500000 s_1_6 > -1920.791600
tt + 2000 s_2_1 > 0
tt - t_2_1 - 2005.000000 s_2_1 + 5.000000 s_2_6 > -1960.587450
tt + 2000 s_1_2 > 0
tt - t_1_2 - 2002.500000 s_1_2 + 2.500000 s_1_7 > -1905.018950
tt + 2000 s_2_2 > 0
tt - t_2_2 - 2005.000000 s_2_2 + 5.000000 s_2_7 > -1954.786400
tt + 2000 s_1_3 > 0
tt - t_1_3 - 2002.500000 s_1_3 + 2.500000 s_1_7 > -1878.435000
tt + 2000 s_2_3 > 0
tt - t_2_3 - 2005.000000 s_2_3 + 5.000000 s_2_7 > -1936.407600
tt + 2000 s_1_4 > 0
tt - t_1_4 - 2043.764222 s_1_4 + 43.764222 s_1_7 > -1934.652400
tt + 2000 s_2_4 > 0
tt - t_2_4 - 2087.528444 s_2_4 + 87.528444 s_2_7 > -1964.773600
tt + 2000 s_1_5 > 0
tt - t_1_5 - 2010.000000 s_1_5 + 10.000000 s_1_7 > -1943.713200
tt + 2000 s_2_5 > 0
tt - t_2_5 - 2020.000000 s_2_5 + 20.000000 s_2_7 > -1968.477400
tt + 2000 s_1_6 > 0
tt - t_1_6 - 2000.000000 s_1_6 > -1868.409600
tt + 2000 s_2_6 > 0
tt - t_2_6 - 2000.000000 s_2_6 > -1934.069000
tt + 2000 s_1_7 > 0
tt - t_1_7 - 2000.000000 s_1_7 > -1870.142400
tt + 2000 s_2_7 > 0
tt - t_2_7 - 2000.000000 s_2_7 > -1934.118800
tt + 2000 s_1_8 > 0
tt - t_1_8 - 2387.642222 s_1_8 + 387.642222 s_1_1 > -1995.571600
tt + 2000 s_2_8 > 0
tt - t_2_8 - 2775.284444 s_2_8 + 775.284444 s_2_1 > -1945.171600
s_1_1 + s_2_1  = 1
s_1_2 + s_2_2  = 1
s_1_3 + s_2_3  = 1
s_1_4 + s_2_4  = 1
s_1_5 + s_2_5  = 1
s_1_6 + s_2_6  = 1
s_1_7 + s_2_7  = 1
s_1_8 + s_2_8  = 1
t_1_1 - t_1_2 + 2000.000000 u_1_1_2 - 2.500000 s_1_2 + 2.500000 s_1_7 > 94.981050
t_1_2 - t_1_1 - 2000.000000 u_1_1_2 > -1920.791600
t_2_1 - t_2_2 + 2000.000000 u_2_1_2 - 5.000000 s_2_2 + 5.000000 s_2_7 > 45.213600
t_2_2 - t_2_1 - 2000.000000 u_2_1_2 > -1960.587450
t_1_1 - t_1_3 + 2000.000000 u_1_1_3 - 2.500000 s_1_3 + 2.500000 s_1_7 > 121.565000
t_1_3 - t_1_1 - 2000.000000 u_1_1_3 > -1920.791600
t_2_1 - t_2_3 + 2000.000000 u_2_1_3 - 5.000000 s_2_3 + 5.000000 s_2_7 > 63.592400
t_2_3 - t_2_1 - 2000.000000 u_2_1_3 > -1960.587450
t_1_1 - t_1_4 + 2000.000000 u_1_1_4 - 21.882111 s_1_4 + 21.882111 s_1_7 > 65.347600
t_1_4 - t_1_1 - 2000.000000 u_1_1_4 > -1920.791600
t_2_1 - t_2_4 + 2000.000000 u_2_1_4 - 43.764222 s_2_4 + 43.764222 s_2_7 > 35.226400
t_2_4 - t_2_1 - 2000.000000 u_2_1_4 > -1960.587450
t_1_1 - t_1_5 + 2000.000000 u_1_1_5 - 5.000000 s_1_5 + 5.000000 s_1_7 > 56.286800
t_1_5 - t_1_1 - 2000.000000 u_1_1_5 > -1920.791600
t_2_1 - t_2_5 + 2000.000000 u_2_1_5 - 10.000000 s_2_5 + 10.000000 s_2_7 > 31.522600
t_2_5 - t_2_1 - 2000.000000 u_2_1_5 > -1960.587450
t_1_1 - t_1_6 - 2000.000000 s_1_6 > -1819.954322
t_1_1 - t_2_6 - 2000.000000 s_2_6 > -1837.158444
t_2_1 - t_1_6 - 2000.000000 s_1_6 > -1819.954322
t_2_1 - t_2_6 - 2000.000000 s_2_6 > -1837.158444
t_1_1 - t_1_7 + 2000.000000 u_1_1_7 > 129.857600
t_1_7 - t_1_1 - 2000.000000 u_1_1_7 > -1920.791600
t_2_1 - t_2_7 + 2000.000000 u_2_1_7 > 65.881200
t_2_7 - t_2_1 - 2000.000000 u_2_1_7 > -1960.587450
t_1_8 - t_1_1 - 2000.000000 s_1_1 > -1918.291600
t_1_8 - t_2_1 - 2000.000000 s_2_1 > -1955.587450
t_2_8 - t_1_1 - 2000.000000 s_1_1 > -1918.291600
t_2_8 - t_2_1 - 2000.000000 s_2_1 > -1955.587450
t_1_2 - t_1_1 + 2000.000000 u_1_2_1 - 2.500000 s_1_1 + 2.500000 s_1_6 > 79.208400
t_1_1 - t_1_2 - 2000.000000 u_1_2_1 > -1905.018950
t_2_2 - t_2_1 + 2000.000000 u_2_2_1 - 5.000000 s_2_1 + 5.000000 s_2_6 > 39.412550
t_2_1 - t_2_2 - 2000.000000 u_2_2_1 > -1954.786400
t_1_2 - t_1_3 + 2000.000000 u_1_2_3 - 2.500000 s_1_3 + 2.500000 s_1_7 > 121.565000
t_1_3 - t_1_2 - 2000.000000 u_1_2_3 > -1905.018950
t_2_2 - t_2_3 + 2000.000000 u_2_2_3 - 5.000000 s_2_3 + 5.000000 s_2_7 > 63.592400
t_2_3 - t_2_2 - 2000.000000 u_2_2_3 > -1954.786400
t_1_2 - t_1_4 + 2000.000000 u_1_2_4 - 21.882111 s_1_4 + 21.882111 s_1_7 > 65.347600
t_1_4 - t_1_2 - 2000.000000 u_1_2_4 > -1905.018950
t_2_2 - t_2_4 + 2000.000000 u_2_2_4 - 43.764222 s_2_4 + 43.764222 s_2_7 > 35.226400
t_2_4 - t_2_2 - 2000.000000 u_2_2_4 > -1954.786400
t_1_2 - t_1_5 + 2000.000000 u_1_2_5 - 5.000000 s_1_5 + 5.000000 s_1_7 > 56.286800
t_1_5 - t_1_2 - 2000.000000 u_1_2_5 > -1905.018950
t_2_2 - t_2_5 + 2000.000000 u_2_2_5 - 10.000000 s_2_5 + 10.000000 s_2_7 > 31.522600
t_2_5 - t_2_2 - 2000.000000 u_2_2_5 > -1954.786400
t_1_2 - t_1_6 + 2000.000000 u_1_2_6 > 131.590400
t_1_6 - t_1_2 - 2000.000000 u_1_2_6 > -1905.018950
t_2_2 - t_2_6 + 2000.000000 u_2_2_6 > 65.931000
t_2_6 - t_2_2 - 2000.000000 u_2_2_6 > -1954.786400
t_1_2 - t_1_7 - 2000.000000 s_1_7 > -1821.687122
t_1_2 - t_2_7 - 2000.000000 s_2_7 > -1837.208244
t_2_2 - t_1_7 - 2000.000000 s_1_7 > -1821.687122
t_2_2 - t_2_7 - 2000.000000 s_2_7 > -1837.208244
t_1_8 - t_1_2 - 2000.000000 s_1_2 > -1902.518950
t_1_8 - t_2_2 - 2000.000000 s_2_2 > -1949.786400
t_2_8 - t_1_2 - 2000.000000 s_1_2 > -1902.518950
t_2_8 - t_2_2 - 2000.000000 s_2_2 > -1949.786400
t_1_3 - t_1_1 + 2000.000000 u_1_3_1 - 2.500000 s_1_1 + 2.500000 s_1_6 > 79.208400
t_1_1 - t_1_3 - 2000.000000 u_1_3_1 > -1878.435000
t_2_3 - t_2_1 + 2000.000000 u_2_3_1 - 5.000000 s_2_1 + 5.000000 s_2_6 > 39.412550
t_2_1 - t_2_3 - 2000.000000 u_2_3_1 > -1936.407600
t_1_3 - t_1_2 + 2000.000000 u_1_3_2 - 2.500000 s_1_2 + 2.500000 s_1_7 > 94.981050
t_1_2 - t_1_3 - 2000.000000 u_1_3_2 > -1878.435000
t_2_3 - t_2_2 + 2000.000000 u_2_3_2 - 5.000000 s_2_2 + 5.000000 s_2_7 > 45.213600
t_2_2 - t_2_3 - 2000.000000 u_2_3_2 > -1936.407600
t_1_4 - t_1_3 - 2000.000000 s_1_3 > -1875.935000
t_1_4 - t_2_3 - 2000.000000 s_2_3 > -1931.407600
t_2_4 - t_1_3 - 2000.000000 s_1_3 > -1875.935000
t_2_4 - t_2_3 - 2000.000000 s_2_3 > -1931.407600
t_1_3 - t_1_5 + 2000.000000 u_1_3_5 - 5.000000 s_1_5 + 5.000000 s_1_7 > 56.286800
t_1_5 - t_1_3 - 2000.000000 u_1_3_5 > -1878.435000
t_2_3 - t_2_5 + 2000.000000 u_2_3_5 - 10.000000 s_2_5 + 10.000000 s_2_7 > 31.522600
t_2_5 - t_2_3 - 2000.000000 u_2_3_5 > -1936.407600
t_1_3 - t_1_6 + 2000.000000 u_1_3_6 > 131.590400
t_1_6 - t_1_3 - 2000.000000 u_1_3_6 > -1878.435000
t_2_3 - t_2_6 + 2000.000000 u_2_3_6 > 65.931000
t_2_6 - t_2_3 - 2000.000000 u_2_3_6 > -1936.407600
t_1_3 - t_1_7 - 2000.000000 s_1_7 > -1821.687122
t_1_3 - t_2_7 - 2000.000000 s_2_7 > -1837.208244
t_2_3 - t_1_7 - 2000.000000 s_1_7 > -1821.687122
t_2_3 - t_2_7 - 2000.000000 s_2_7 > -1837.208244
t_1_8 - t_1_3 - 2000.000000 s_1_3 > -1875.935000
t_1_8 - t_2_3 - 2000.000000 s_2_3 > -1931.407600
t_2_8 - t_1_3 - 2000.000000 s_1_3 > -1875.935000
t_2_8 - t_2_3 - 2000.000000 s_2_3 > -1931.407600
t_1_4 - t_1_1 + 2000.000000 u_1_4_1 - 2.500000 s_1_1 + 2.500000 s_1_6 > 79.208400
t_1_1 - t_1_4 - 2000.000000 u_1_4_1 > -1934.652400
t_2_4 - t_2_1 + 2000.000000 u_2_4_1 - 5.000000 s_2_1 + 5.000000 s_2_6 > 39.412550
t_2_1 - t_2_4 - 2000.000000 u_2_4_1 > -1964.773600
t_1_4 - t_1_2 + 2000.000000 u_1_4_2 - 2.500000 s_1_2 + 2.500000 s_1_7 > 94.981050
t_1_2 - t_1_4 - 2000.000000 u_1_4_2 > -1934.652400
t_2_4 - t_2_2 + 2000.000000 u_2_4_2 - 5.000000 s_2_2 + 5.000000 s_2_7 > 45.213600
t_2_2 - t_2_4 - 2000.000000 u_2_4_2 > -1964.773600
t_1_4 - t_1_3 - 2000.000000 s_1_3 > -1875.935000
t_1_4 - t_2_3 - 2000.000000 s_2_3 > -1931.407600
t_2_4 - t_1_3 - 2000.000000 s_1_3 > -1875.935000
t_2_4 - t_2_3 - 2000.000000 s_2_3 > -1931.407600
t_1_4 - t_1_5 + 2000.000000 u_1_4_5 - 5.000000 s_1_5 + 5.000000 s_1_7 > 56.286800
t_1_5 - t_1_4 - 2000.000000 u_1_4_5 > -1934.652400
t_2_4 - t_2_5 + 2000.000000 u_2_4_5 - 10.000000 s_2_5 + 10.000000 s_2_7 > 31.522600
t_2_5 - t_2_4 - 2000.000000 u_2_4_5 > -1964.773600
t_1_4 - t_1_6 + 2000.000000 u_1_4_6 > 131.590400
t_1_6 - t_1_4 - 2000.000000 u_1_4_6 > -1934.652400
t_2_4 - t_2_6 + 2000.000000 u_2_4_6 > 65.931000
t_2_6 - t_2_4 - 2000.000000 u_2_4_6 > -1964.773600
t_1_4 - t_1_7 - 2000.000000 s_1_7 > -1821.687122
t_1_4 - t_2_7 - 2000.000000 s_2_7 > -1837.208244
t_2_4 - t_1_7 - 2000.000000 s_1_7 > -1821.687122
t_2_4 - t_2_7 - 2000.000000 s_2_7 > -1837.208244
t_1_8 - t_1_4 - 2000.000000 s_1_4 > -1912.770289
t_1_8 - t_2_4 - 2000.000000 s_2_4 > -1921.009378
t_2_8 - t_1_4 - 2000.000000 s_1_4 > -1912.770289
t_2_8 - t_2_4 - 2000.000000 s_2_4 > -1921.009378
t_1_5 - t_1_1 + 2000.000000 u_1_5_1 - 2.500000 s_1_1 + 2.500000 s_1_6 > 79.208400
t_1_1 - t_1_5 - 2000.000000 u_1_5_1 > -1943.713200
t_2_5 - t_2_1 + 2000.000000 u_2_5_1 - 5.000000 s_2_1 + 5.000000 s_2_6 > 39.412550
t_2_1 - t_2_5 - 2000.000000 u_2_5_1 > -1968.477400
t_1_5 - t_1_2 + 2000.000000 u_1_5_2 - 2.500000 s_1_2 + 2.500000 s_1_7 > 94.981050
t_1_2 - t_1_5 - 2000.000000 u_1_5_2 > -1943.713200
t_2_5 - t_2_2 + 2000.000000 u_2_5_2 - 5.000000 s_2_2 + 5.000000 s_2_7 > 45.213600
t_2_2 - t_2_5 - 2000.000000 u_2_5_2 > -1968.477400
t_1_5 - t_1_3 + 2000.000000 u_1_5_3 - 2.500000 s_1_3 + 2.500000 s_1_7 > 121.565000
t_1_3 - t_1_5 - 2000.000000 u_1_5_3 > -1943.713200
t_2_5 - t_2_3 + 2000.000000 u_2_5_3 - 5.000000 s_2_3 + 5.000000 s_2_7 > 63.592400
t_2_3 - t_2_5 - 2000.000000 u_2_5_3 > -1968.477400
t_1_5 - t_1_4 + 2000.000000 u_1_5_4 - 21.882111 s_1_4 + 21.882111 s_1_7 > 65.347600
t_1_4 - t_1_5 - 2000.000000 u_1_5_4 > -1943.713200
t_2_5 - t_2_4 + 2000.000000 u_2_5_4 - 43.764222 s_2_4 + 43.764222 s_2_7 > 35.226400
t_2_4 - t_2_5 - 2000.000000 u_2_5_4 > -1968.477400
t_1_5 - t_1_6 - 2000.000000 s_1_6 > -1819.954322
t_1_5 - t_2_6 - 2000.000000 s_2_6 > -1837.158444
t_2_5 - t_1_6 - 2000.000000 s_1_6 > -1819.954322
t_2_5 - t_2_6 - 2000.000000 s_2_6 > -1837.158444
t_1_5 - t_1_7 - 2000.000000 s_1_7 > -1821.687122
t_1_5 - t_2_7 - 2000.000000 s_2_7 > -1837.208244
t_2_5 - t_1_7 - 2000.000000 s_1_7 > -1821.687122
t_2_5 - t_2_7 - 2000.000000 s_2_7 > -1837.208244
t_1_8 - t_1_5 - 2000.000000 s_1_5 > -1938.713200
t_1_8 - t_2_5 - 2000.000000 s_2_5 > -1958.477400
t_2_8 - t_1_5 - 2000.000000 s_1_5 > -1938.713200
t_2_8 - t_2_5 - 2000.000000 s_2_5 > -1958.477400
t_1_1 - t_1_6 - 2000.000000 s_1_6 > -1819.954322
t_1_1 - t_2_6 - 2000.000000 s_2_6 > -1837.158444
t_2_1 - t_1_6 - 2000.000000 s_1_6 > -1819.954322
t_2_1 - t_2_6 - 2000.000000 s_2_6 > -1837.158444
t_1_6 - t_1_2 + 2000.000000 u_1_6_2 - 2.500000 s_1_2 + 2.500000 s_1_7 > 94.981050
t_1_2 - t_1_6 - 2000.000000 u_1_6_2 > -1868.409600
t_2_6 - t_2_2 + 2000.000000 u_2_6_2 - 5.000000 s_2_2 + 5.000000 s_2_7 > 45.213600
t_2_2 - t_2_6 - 2000.000000 u_2_6_2 > -1934.069000
t_1_6 - t_1_3 + 2000.000000 u_1_6_3 - 2.500000 s_1_3 + 2.500000 s_1_7 > 121.565000
t_1_3 - t_1_6 - 2000.000000 u_1_6_3 > -1868.409600
t_2_6 - t_2_3 + 2000.000000 u_2_6_3 - 5.000000 s_2_3 + 5.000000 s_2_7 > 63.592400
t_2_3 - t_2_6 - 2000.000000 u_2_6_3 > -1934.069000
t_1_6 - t_1_4 + 2000.000000 u_1_6_4 - 21.882111 s_1_4 + 21.882111 s_1_7 > 65.347600
t_1_4 - t_1_6 - 2000.000000 u_1_6_4 > -1868.409600
t_2_6 - t_2_4 + 2000.000000 u_2_6_4 - 43.764222 s_2_4 + 43.764222 s_2_7 > 35.226400
t_2_4 - t_2_6 - 2000.000000 u_2_6_4 > -1934.069000
t_1_5 - t_1_6 - 2000.000000 s_1_6 > -1819.954322
t_1_5 - t_2_6 - 2000.000000 s_2_6 > -1837.158444
t_2_5 - t_1_6 - 2000.000000 s_1_6 > -1819.954322
t_2_5 - t_2_6 - 2000.000000 s_2_6 > -1837.158444
t_1_6 - t_1_7 + 2000.000000 u_1_6_7 > 129.857600
t_1_7 - t_1_6 - 2000.000000 u_1_6_7 > -1868.409600
t_2_6 - t_2_7 + 2000.000000 u_2_6_7 > 65.881200
t_2_7 - t_2_6 - 2000.000000 u_2_6_7 > -1934.069000
t_1_7 - t_1_1 + 2000.000000 u_1_7_1 - 2.500000 s_1_1 + 2.500000 s_1_6 > 79.208400
t_1_1 - t_1_7 - 2000.000000 u_1_7_1 > -1870.142400
t_2_7 - t_2_1 + 2000.000000 u_2_7_1 - 5.000000 s_2_1 + 5.000000 s_2_6 > 39.412550
t_2_1 - t_2_7 - 2000.000000 u_2_7_1 > -1934.118800
t_1_2 - t_1_7 - 2000.000000 s_1_7 > -1821.687122
t_1_2 - t_2_7 - 2000.000000 s_2_7 > -1837.208244
t_2_2 - t_1_7 - 2000.000000 s_1_7 > -1821.687122
t_2_2 - t_2_7 - 2000.000000 s_2_7 > -1837.208244
t_1_3 - t_1_7 - 2000.000000 s_1_7 > -1821.687122
t_1_3 - t_2_7 - 2000.000000 s_2_7 > -1837.208244
t_2_3 - t_1_7 - 2000.000000 s_1_7 > -1821.687122
t_2_3 - t_2_7 - 2000.000000 s_2_7 > -1837.208244
t_1_4 - t_1_7 - 2000.000000 s_1_7 > -1821.687122
t_1_4 - t_2_7 - 2000.000000 s_2_7 > -1837.208244
t_2_4 - t_1_7 - 2000.000000 s_1_7 > -1821.687122
t_2_4 - t_2_7 - 2000.000000 s_2_7 > -1837.208244
t_1_5 - t_1_7 - 2000.000000 s_1_7 > -1821.687122
t_1_5 - t_2_7 - 2000.000000 s_2_7 > -1837.208244
t_2_5 - t_1_7 - 2000.000000 s_1_7 > -1821.687122
t_2_5 - t_2_7 - 2000.000000 s_2_7 > -1837.208244
t_1_7 - t_1_6 + 2000.000000 u_1_7_6 > 131.590400
t_1_6 - t_1_7 - 2000.000000 u_1_7_6 > -1870.142400
t_2_7 - t_2_6 + 2000.000000 u_2_7_6 > 65.931000
t_2_6 - t_2_7 - 2000.000000 u_2_7_6 > -1934.118800
t_1_8 - t_1_1 - 2000.000000 s_1_1 > -1918.291600
t_1_8 - t_2_1 - 2000.000000 s_2_1 > -1955.587450
t_2_8 - t_1_1 - 2000.000000 s_1_1 > -1918.291600
t_2_8 - t_2_1 - 2000.000000 s_2_1 > -1955.587450
t_1_8 - t_1_2 - 2000.000000 s_1_2 > -1902.518950
t_1_8 - t_2_2 - 2000.000000 s_2_2 > -1949.786400
t_2_8 - t_1_2 - 2000.000000 s_1_2 > -1902.518950
t_2_8 - t_2_2 - 2000.000000 s_2_2 > -1949.786400
t_1_8 - t_1_3 - 2000.000000 s_1_3 > -1875.935000
t_1_8 - t_2_3 - 2000.000000 s_2_3 > -1931.407600
t_2_8 - t_1_3 - 2000.000000 s_1_3 > -1875.935000
t_2_8 - t_2_3 - 2000.000000 s_2_3 > -1931.407600
t_1_8 - t_1_4 - 2000.000000 s_1_4 > -1912.770289
t_1_8 - t_2_4 - 2000.000000 s_2_4 > -1921.009378
t_2_8 - t_1_4 - 2000.000000 s_1_4 > -1912.770289
t_2_8 - t_2_4 - 2000.000000 s_2_4 > -1921.009378
t_1_8 - t_1_5 - 2000.000000 s_1_5 > -1938.713200
t_1_8 - t_2_5 - 2000.000000 s_2_5 > -1958.477400
t_2_8 - t_1_5 - 2000.000000 s_1_5 > -1938.713200
t_2_8 - t_2_5 - 2000.000000 s_2_5 > -1958.477400
Binary
s_1_1
s_2_1
s_1_2
s_2_2
s_1_3
s_2_3
s_1_4
s_2_4
s_1_5
s_2_5
s_1_6
s_2_6
s_1_7
s_2_7
s_1_8
s_2_8
u_1_1_2
u_2_1_2
u_1_1_3
u_2_1_3
u_1_1_4
u_2_1_4
u_1_1_5
u_2_1_5
u_1_1_7
u_2_1_7
u_1_2_1
u_2_2_1
u_1_2_3
u_2_2_3
u_1_2_4
u_2_2_4
u_1_2_5
u_2_2_5
u_1_2_6
u_2_2_6
u_1_3_1
u_2_3_1
u_1_3_2
u_2_3_2
u_1_3_5
u_2_3_5
u_1_3_6
u_2_3_6
u_1_4_1
u_2_4_1
u_1_4_2
u_2_4_2
u_1_4_5
u_2_4_5
u_1_4_6
u_2_4_6
u_1_5_1
u_2_5_1
u_1_5_2
u_2_5_2
u_1_5_3
u_2_5_3
u_1_5_4
u_2_5_4
u_1_6_2
u_2_6_2
u_1_6_3
u_2_6_3
u_1_6_4
u_2_6_4
u_1_6_7
u_2_6_7
u_1_7_1
u_2_7_1
u_1_7_6
u_2_7_6

End
